c nIsolatedPIs 2
c maxPI 5
p cnf 9 13
c gate 6 -1 2 0
-1 -6 0
2 -6 0
1 -2 6 0
c gate 7 3 4 0
3 -7 0
4 -7 0
-3 -4 7 0
c gate 8 -5 7 0
-5 -8 0
7 -8 0
5 -7 8 0
c gate 9 6 8 0
6 -9 0
8 -9 0
-6 -8 9 0
c PO
9 0
